p tw 117 21061 2 
1 3 
1 4 
1 5 
1 6 
1 7 
1 8 
1 9 
1 10 
1 11 
1 12 
1 13 
1 14 
1 15 
1 16 
1 17 
1 18 
1 19 
1 20 
1 21 
1 22 
1 23 
1 24 
1 25 
1 30 
1 41 
1 49 
1 57 
1 65 
1 79 
1 86 
1 87 
1 88 
1 89 
1 90 
1 91 
2 3 
2 4 
2 5 
2 6 
2 7 
2 8 
2 9 
2 10 
2 11 
2 12 
2 13 
2 14 
2 17 
2 26 
2 27 
2 28 
2 29 
2 30 
2 31 
2 32 
2 33 
2 34 
2 35 
2 36 
2 40 
2 50 
2 64 
2 71 
2 79 
2 80 
2 81 
2 82 
2 83 
2 84 
2 85 
3 4 
3 5 
3 6 
3 7 
3 8 
3 9 
3 10 
3 11 
3 12 
3 13 
3 15 
3 25 
3 26 
3 35 
3 37 
3 38 
3 39 
3 40 
3 41 
3 42 
3 43 
3 44 
3 45 
3 46 
3 52 
3 59 
3 69 
3 76 
3 82 
3 86 
3 107 
3 110 
3 115 
3 116 
4 5 
4 6 
4 7 
4 8 
4 9 
4 10 
4 11 
4 12 
4 13 
4 16 
4 22 
4 27 
4 30 
4 37 
4 42 
4 47 
4 48 
4 49 
4 50 
4 51 
4 52 
4 53 
4 54 
4 55 
4 61 
4 68 
4 76 
4 84 
4 98 
4 102 
4 104 
4 108 
4 109 
5 6 
5 7 
5 8 
5 9 
5 10 
5 11 
5 12 
5 13 
5 17 
5 24 
5 28 
5 36 
5 38 
5 46 
5 47 
5 55 
5 56 
5 57 
5 58 
5 59 
5 60 
5 61 
5 62 
5 63 
5 69 
5 71 
5 91 
5 92 
5 97 
5 103 
5 108 
5 117 
6 7 
6 8 
6 9 
6 10 
6 11 
6 12 
6 13 
6 16 
6 18 
6 29 
6 33 
6 39 
6 43 
6 48 
6 56 
6 57 
6 64 
6 65 
6 66 
6 67 
6 68 
6 69 
6 70 
6 74 
6 82 
6 92 
6 96 
6 100 
6 104 
6 105 
6 106 
7 8 
7 9 
7 10 
7 11 
7 12 
7 13 
7 19 
7 20 
7 26 
7 32 
7 39 
7 49 
7 53 
7 56 
7 59 
7 71 
7 72 
7 73 
7 74 
7 75 
7 76 
7 77 
7 78 
7 81 
7 88 
7 95 
7 100 
7 101 
7 102 
7 103 
8 9 
8 10 
8 11 
8 12 
8 13 
8 20 
8 22 
8 27 
8 31 
8 42 
8 45 
8 51 
8 58 
8 62 
8 66 
8 70 
8 72 
8 74 
8 80 
8 85 
8 86 
8 91 
8 92 
8 93 
8 94 
8 99 
8 101 
8 111 
8 115 
9 10 
9 11 
9 12 
9 13 
9 14 
9 21 
9 28 
9 38 
9 43 
9 50 
9 52 
9 67 
9 70 
9 73 
9 78 
9 80 
9 87 
9 90 
9 94 
9 95 
9 96 
9 97 
9 98 
9 99 
9 103 
9 109 
9 110 
9 114 
10 11 
10 12 
10 13 
10 21 
10 23 
10 34 
10 35 
10 40 
10 41 
10 54 
10 55 
10 60 
10 62 
10 65 
10 66 
10 75 
10 77 
10 83 
10 93 
10 96 
10 97 
10 101 
10 102 
10 104 
10 107 
10 113 
10 114 
11 12 
11 13 
11 15 
11 23 
11 31 
11 33 
11 44 
11 48 
11 51 
11 60 
11 61 
11 64 
11 73 
11 75 
11 81 
11 88 
11 90 
11 99 
11 106 
11 108 
11 110 
11 111 
11 112 
11 113 
11 116 
11 117 
12 13 
12 24 
12 25 
12 29 
12 34 
12 44 
12 46 
12 53 
12 54 
12 58 
12 63 
12 68 
12 77 
12 78 
12 84 
12 85 
12 87 
12 89 
12 94 
12 95 
12 105 
12 106 
12 112 
12 113 
12 115 
13 18 
13 19 
13 32 
13 36 
13 37 
13 45 
13 47 
13 63 
13 67 
13 72 
13 79 
13 83 
13 89 
13 93 
13 98 
13 100 
13 105 
13 107 
13 109 
13 111 
13 112 
13 114 
13 116 
13 117 
14 15 
14 16 
14 17 
14 18 
14 19 
14 20 
14 21 
14 22 
14 23 
14 24 
14 25 
14 26 
14 27 
14 28 
14 29 
14 30 
14 31 
14 32 
14 33 
14 34 
14 35 
14 36 
14 38 
14 52 
14 67 
14 73 
14 80 
14 87 
14 95 
14 96 
14 97 
14 98 
14 99 
15 16 
15 17 
15 18 
15 19 
15 20 
15 21 
15 22 
15 23 
15 24 
15 25 
15 26 
15 31 
15 37 
15 38 
15 39 
15 40 
15 41 
15 42 
15 43 
15 44 
15 45 
15 46 
15 48 
15 61 
15 75 
15 81 
15 90 
15 99 
15 106 
15 113 
15 116 
15 117 
16 17 
16 18 
16 19 
16 20 
16 21 
16 22 
16 23 
16 24 
16 25 
16 27 
16 33 
16 37 
16 43 
16 47 
16 48 
16 49 
16 50 
16 51 
16 52 
16 53 
16 54 
16 55 
16 57 
16 74 
16 82 
16 92 
16 96 
16 100 
16 104 
16 105 
16 106 
17 18 
17 19 
17 20 
17 21 
17 22 
17 23 
17 24 
17 25 
17 28 
17 38 
17 40 
17 47 
17 50 
17 56 
17 57 
17 58 
17 59 
17 60 
17 61 
17 62 
17 63 
17 64 
17 71 
17 79 
17 80 
17 81 
17 82 
17 83 
17 84 
17 85 
18 19 
18 20 
18 21 
18 22 
18 23 
18 24 
18 25 
18 29 
18 36 
18 39 
18 45 
18 47 
18 48 
18 56 
18 64 
18 65 
18 66 
18 67 
18 68 
18 69 
18 70 
18 72 
18 83 
18 89 
18 98 
18 100 
18 112 
18 114 
18 116 
19 20 
19 21 
19 22 
19 23 
19 24 
19 25 
19 26 
19 32 
19 37 
19 49 
19 56 
19 63 
19 67 
19 71 
19 72 
19 73 
19 74 
19 75 
19 76 
19 77 
19 78 
19 79 
19 93 
19 105 
19 107 
19 109 
19 111 
19 117 
20 21 
20 22 
20 23 
20 24 
20 25 
20 31 
20 32 
20 39 
20 42 
20 51 
20 53 
20 58 
20 59 
20 66 
20 72 
20 80 
20 81 
20 86 
20 88 
20 92 
20 93 
20 94 
20 95 
20 100 
20 101 
20 102 
20 103 
21 22 
21 23 
21 24 
21 25 
21 28 
21 34 
21 41 
21 43 
21 50 
21 54 
21 60 
21 66 
21 70 
21 75 
21 78 
21 83 
21 90 
21 94 
21 97 
21 101 
21 103 
21 104 
21 107 
21 109 
21 110 
21 114 
22 23 
22 24 
22 25 
22 27 
22 30 
22 42 
22 45 
22 61 
22 62 
22 68 
22 70 
22 74 
22 76 
22 84 
22 85 
22 91 
22 98 
22 99 
22 101 
22 102 
22 104 
22 108 
22 109 
22 111 
22 115 
23 24 
23 25 
23 33 
23 35 
23 40 
23 44 
23 51 
23 55 
23 60 
23 62 
23 64 
23 65 
23 73 
23 77 
23 88 
23 93 
23 96 
23 102 
23 108 
23 110 
23 111 
23 112 
23 113 
23 114 
24 25 
24 29 
24 36 
24 44 
24 46 
24 54 
24 55 
24 58 
24 69 
24 71 
24 78 
24 84 
24 89 
24 91 
24 92 
24 95 
24 97 
24 103 
24 105 
24 108 
24 113 
24 115 
24 117 
25 34 
25 35 
25 46 
25 52 
25 53 
25 59 
25 63 
25 68 
25 69 
25 76 
25 77 
25 82 
25 85 
25 86 
25 87 
25 94 
25 106 
25 107 
25 110 
25 112 
25 115 
25 116 
26 27 
26 28 
26 29 
26 30 
26 31 
26 32 
26 33 
26 34 
26 35 
26 36 
26 37 
26 38 
26 39 
26 40 
26 41 
26 42 
26 43 
26 44 
26 45 
26 46 
26 49 
26 56 
26 71 
26 72 
26 73 
26 74 
26 75 
26 76 
26 77 
26 78 
27 28 
27 29 
27 30 
27 31 
27 32 
27 33 
27 34 
27 35 
27 36 
27 37 
27 45 
27 47 
27 48 
27 49 
27 50 
27 51 
27 52 
27 53 
27 54 
27 55 
27 62 
27 70 
27 74 
27 85 
27 91 
27 99 
27 101 
27 111 
27 115 
28 29 
28 30 
28 31 
28 32 
28 33 
28 34 
28 35 
28 36 
28 38 
28 43 
28 47 
28 50 
28 56 
28 57 
28 58 
28 59 
28 60 
28 61 
28 62 
28 63 
28 70 
28 78 
28 90 
28 94 
28 103 
28 109 
28 110 
28 114 
29 30 
29 31 
29 32 
29 33 
29 34 
29 35 
29 36 
29 39 
29 44 
29 48 
29 54 
29 56 
29 58 
29 64 
29 65 
29 66 
29 67 
29 68 
29 69 
29 70 
29 78 
29 84 
29 89 
29 95 
29 105 
29 113 
29 115 
30 31 
30 32 
30 33 
30 34 
30 35 
30 36 
30 41 
30 42 
30 49 
30 57 
30 61 
30 65 
30 68 
30 76 
30 79 
30 84 
30 86 
30 87 
30 88 
30 89 
30 90 
30 91 
30 98 
30 102 
30 104 
30 108 
30 109 
31 32 
31 33 
31 34 
31 35 
31 36 
31 42 
31 48 
31 51 
31 58 
31 61 
31 66 
31 72 
31 75 
31 80 
31 81 
31 86 
31 90 
31 92 
31 93 
31 94 
31 99 
31 106 
31 113 
31 116 
31 117 
32 33 
32 34 
32 35 
32 36 
32 37 
32 39 
32 53 
32 59 
32 63 
32 67 
32 79 
32 81 
32 88 
32 93 
32 95 
32 100 
32 101 
32 102 
32 103 
32 105 
32 107 
32 109 
32 111 
32 117 
33 34 
33 35 
33 36 
33 43 
33 44 
33 51 
33 57 
33 60 
33 64 
33 73 
33 74 
33 82 
33 88 
33 92 
33 96 
33 100 
33 104 
33 105 
33 106 
33 108 
33 110 
33 111 
33 112 
34 35 
34 36 
34 41 
34 46 
34 53 
34 54 
34 60 
34 63 
34 66 
34 68 
34 75 
34 77 
34 83 
34 85 
34 87 
34 94 
34 97 
34 101 
34 104 
34 106 
34 107 
34 112 
35 36 
35 40 
35 52 
35 55 
35 59 
35 62 
35 65 
35 69 
35 76 
35 77 
35 82 
35 86 
35 93 
35 96 
35 102 
35 107 
35 110 
35 113 
35 114 
35 115 
35 116 
36 45 
36 46 
36 47 
36 55 
36 69 
36 71 
36 72 
36 83 
36 89 
36 91 
36 92 
36 97 
36 98 
36 100 
36 103 
36 108 
36 112 
36 114 
36 116 
36 117 
37 38 
37 39 
37 40 
37 41 
37 42 
37 43 
37 44 
37 45 
37 46 
37 47 
37 48 
37 49 
37 50 
37 51 
37 52 
37 53 
37 54 
37 55 
37 63 
37 67 
37 79 
37 93 
37 105 
37 107 
37 109 
37 111 
37 117 
38 39 
38 40 
38 41 
38 42 
38 43 
38 44 
38 45 
38 46 
38 47 
38 52 
38 56 
38 57 
38 58 
38 59 
38 60 
38 61 
38 62 
38 63 
38 67 
38 73 
38 80 
38 87 
38 95 
38 96 
38 97 
38 98 
38 99 
39 40 
39 41 
39 42 
39 43 
39 44 
39 45 
39 46 
39 48 
39 53 
39 56 
39 59 
39 64 
39 65 
39 66 
39 67 
39 68 
39 69 
39 70 
39 81 
39 88 
39 95 
39 100 
39 101 
39 102 
39 103 
40 41 
40 42 
40 43 
40 44 
40 45 
40 46 
40 50 
40 55 
40 62 
40 64 
40 65 
40 71 
40 77 
40 79 
40 80 
40 81 
40 82 
40 83 
40 84 
40 85 
40 93 
40 96 
40 102 
40 113 
40 114 
41 42 
41 43 
41 44 
41 45 
41 46 
41 49 
41 54 
41 57 
41 60 
41 65 
41 66 
41 75 
41 79 
41 83 
41 86 
41 87 
41 88 
41 89 
41 90 
41 91 
41 97 
41 101 
41 104 
41 107 
42 43 
42 44 
42 45 
42 46 
42 51 
42 58 
42 61 
42 66 
42 68 
42 72 
42 76 
42 80 
42 84 
42 86 
42 92 
42 93 
42 94 
42 98 
42 102 
42 104 
42 108 
42 109 
43 44 
43 45 
43 46 
43 50 
43 57 
43 70 
43 74 
43 78 
43 82 
43 90 
43 92 
43 94 
43 96 
43 100 
43 103 
43 104 
43 105 
43 106 
43 109 
43 110 
43 114 
44 45 
44 46 
44 51 
44 54 
44 58 
44 60 
44 64 
44 73 
44 78 
44 84 
44 88 
44 89 
44 95 
44 105 
44 108 
44 110 
44 111 
44 112 
44 113 
44 115 
45 46 
45 47 
45 62 
45 70 
45 72 
45 74 
45 83 
45 85 
45 89 
45 91 
45 98 
45 99 
45 100 
45 101 
45 111 
45 112 
45 114 
45 115 
45 116 
46 53 
46 55 
46 63 
46 68 
46 69 
46 71 
46 77 
46 85 
46 87 
46 91 
46 92 
46 94 
46 97 
46 103 
46 106 
46 108 
46 112 
46 117 
47 48 
47 49 
47 50 
47 51 
47 52 
47 53 
47 54 
47 55 
47 56 
47 57 
47 58 
47 59 
47 60 
47 61 
47 62 
47 63 
47 72 
47 83 
47 89 
47 98 
47 100 
47 112 
47 114 
47 116 
48 49 
48 50 
48 51 
48 52 
48 53 
48 54 
48 55 
48 56 
48 61 
48 64 
48 65 
48 66 
48 67 
48 68 
48 69 
48 70 
48 75 
48 81 
48 90 
48 99 
48 106 
48 113 
48 116 
48 117 
49 50 
49 51 
49 52 
49 53 
49 54 
49 55 
49 56 
49 57 
49 65 
49 71 
49 72 
49 73 
49 74 
49 75 
49 76 
49 77 
49 78 
49 79 
49 86 
49 87 
49 88 
49 89 
49 90 
49 91 
50 51 
50 52 
50 53 
50 54 
50 55 
50 64 
50 70 
50 71 
50 78 
50 79 
50 80 
50 81 
50 82 
50 83 
50 84 
50 85 
50 90 
50 94 
50 103 
50 109 
50 110 
50 114 
51 52 
51 53 
51 54 
51 55 
51 58 
51 60 
51 64 
51 66 
51 72 
51 73 
51 80 
51 86 
51 88 
51 92 
51 93 
51 94 
51 108 
51 110 
51 111 
51 112 
52 53 
52 54 
52 55 
52 59 
52 67 
52 69 
52 73 
52 76 
52 80 
52 82 
52 86 
52 87 
52 95 
52 96 
52 97 
52 98 
52 99 
52 107 
52 110 
52 115 
52 116 
53 54 
53 55 
53 59 
53 63 
53 68 
53 77 
53 81 
53 85 
53 87 
53 88 
53 94 
53 95 
53 100 
53 101 
53 102 
53 103 
53 106 
53 112 
54 55 
54 58 
54 60 
54 66 
54 75 
54 78 
54 83 
54 84 
54 89 
54 95 
54 97 
54 101 
54 104 
54 105 
54 107 
54 113 
54 115 
55 62 
55 65 
55 69 
55 71 
55 77 
55 91 
55 92 
55 93 
55 96 
55 97 
55 102 
55 103 
55 108 
55 113 
55 114 
55 117 
56 57 
56 58 
56 59 
56 60 
56 61 
56 62 
56 63 
56 64 
56 65 
56 66 
56 67 
56 68 
56 69 
56 70 
56 71 
56 72 
56 73 
56 74 
56 75 
56 76 
56 77 
56 78 
57 58 
57 59 
57 60 
57 61 
57 62 
57 63 
57 65 
57 74 
57 79 
57 82 
57 86 
57 87 
57 88 
57 89 
57 90 
57 91 
57 92 
57 96 
57 100 
57 104 
57 105 
57 106 
58 59 
58 60 
58 61 
58 62 
58 63 
58 66 
58 72 
58 78 
58 80 
58 84 
58 86 
58 89 
58 92 
58 93 
58 94 
58 95 
58 105 
58 113 
58 115 
59 60 
59 61 
59 62 
59 63 
59 69 
59 76 
59 81 
59 82 
59 86 
59 88 
59 95 
59 100 
59 101 
59 102 
59 103 
59 107 
59 110 
59 115 
59 116 
60 61 
60 62 
60 63 
60 64 
60 66 
60 73 
60 75 
60 83 
60 88 
60 97 
60 101 
60 104 
60 107 
60 108 
60 110 
60 111 
60 112 
61 62 
61 63 
61 68 
61 75 
61 76 
61 81 
61 84 
61 90 
61 98 
61 99 
61 102 
61 104 
61 106 
61 108 
61 109 
61 113 
61 116 
61 117 
62 63 
62 65 
62 70 
62 74 
62 77 
62 85 
62 91 
62 93 
62 96 
62 99 
62 101 
62 102 
62 111 
62 113 
62 114 
62 115 
63 67 
63 68 
63 77 
63 79 
63 85 
63 87 
63 93 
63 94 
63 105 
63 106 
63 107 
63 109 
63 111 
63 112 
63 117 
64 65 
64 66 
64 67 
64 68 
64 69 
64 70 
64 71 
64 73 
64 79 
64 80 
64 81 
64 82 
64 83 
64 84 
64 85 
64 88 
64 108 
64 110 
64 111 
64 112 
65 66 
65 67 
65 68 
65 69 
65 70 
65 77 
65 79 
65 86 
65 87 
65 88 
65 89 
65 90 
65 91 
65 93 
65 96 
65 102 
65 113 
65 114 
66 67 
66 68 
66 69 
66 70 
66 72 
66 75 
66 80 
66 83 
66 86 
66 92 
66 93 
66 94 
66 97 
66 101 
66 104 
66 107 
67 68 
67 69 
67 70 
67 73 
67 79 
67 80 
67 87 
67 93 
67 95 
67 96 
67 97 
67 98 
67 99 
67 105 
67 107 
67 109 
67 111 
67 117 
68 69 
68 70 
68 76 
68 77 
68 84 
68 85 
68 87 
68 94 
68 98 
68 102 
68 104 
68 106 
68 108 
68 109 
68 112 
69 70 
69 71 
69 76 
69 82 
69 86 
69 91 
69 92 
69 97 
69 103 
69 107 
69 108 
69 110 
69 115 
69 116 
69 117 
70 74 
70 78 
70 85 
70 90 
70 91 
70 94 
70 99 
70 101 
70 103 
70 109 
70 110 
70 111 
70 114 
70 115 
71 72 
71 73 
71 74 
71 75 
71 76 
71 77 
71 78 
71 79 
71 80 
71 81 
71 82 
71 83 
71 84 
71 85 
71 91 
71 92 
71 97 
71 103 
71 108 
71 117 
72 73 
72 74 
72 75 
72 76 
72 77 
72 78 
72 80 
72 83 
72 86 
72 89 
72 92 
72 93 
72 94 
72 98 
72 100 
72 112 
72 114 
72 116 
73 74 
73 75 
73 76 
73 77 
73 78 
73 80 
73 87 
73 88 
73 95 
73 96 
73 97 
73 98 
73 99 
73 108 
73 110 
73 111 
73 112 
74 75 
74 76 
74 77 
74 78 
74 82 
74 85 
74 91 
74 92 
74 96 
74 99 
74 100 
74 101 
74 104 
74 105 
74 106 
74 111 
74 115 
75 76 
75 77 
75 78 
75 81 
75 83 
75 90 
75 97 
75 99 
75 101 
75 104 
75 106 
75 107 
75 113 
75 116 
75 117 
76 77 
76 78 
76 82 
76 84 
76 86 
76 98 
76 102 
76 104 
76 107 
76 108 
76 109 
76 110 
76 115 
76 116 
77 78 
77 85 
77 87 
77 93 
77 94 
77 96 
77 102 
77 106 
77 112 
77 113 
77 114 
78 84 
78 89 
78 90 
78 94 
78 95 
78 103 
78 105 
78 109 
78 110 
78 113 
78 114 
78 115 
79 80 
79 81 
79 82 
79 83 
79 84 
79 85 
79 86 
79 87 
79 88 
79 89 
79 90 
79 91 
79 93 
79 105 
79 107 
79 109 
79 111 
79 117 
80 81 
80 82 
80 83 
80 84 
80 85 
80 86 
80 87 
80 92 
80 93 
80 94 
80 95 
80 96 
80 97 
80 98 
80 99 
81 82 
81 83 
81 84 
81 85 
81 88 
81 90 
81 95 
81 99 
81 100 
81 101 
81 102 
81 103 
81 106 
81 113 
81 116 
81 117 
82 83 
82 84 
82 85 
82 86 
82 92 
82 96 
82 100 
82 104 
82 105 
82 106 
82 107 
82 110 
82 115 
82 116 
83 84 
83 85 
83 89 
83 97 
83 98 
83 100 
83 101 
83 104 
83 107 
83 112 
83 114 
83 116 
84 85 
84 89 
84 95 
84 98 
84 102 
84 104 
84 105 
84 108 
84 109 
84 113 
84 115 
85 87 
85 91 
85 94 
85 99 
85 101 
85 106 
85 111 
85 112 
85 115 
86 87 
86 88 
86 89 
86 90 
86 91 
86 92 
86 93 
86 94 
86 107 
86 110 
86 115 
86 116 
87 88 
87 89 
87 90 
87 91 
87 94 
87 95 
87 96 
87 97 
87 98 
87 99 
87 106 
87 112 
88 89 
88 90 
88 91 
88 95 
88 100 
88 101 
88 102 
88 103 
88 108 
88 110 
88 111 
88 112 
89 90 
89 91 
89 95 
89 98 
89 100 
89 105 
89 112 
89 113 
89 114 
89 115 
89 116 
90 91 
90 94 
90 99 
90 103 
90 106 
90 109 
90 110 
90 113 
90 114 
90 116 
90 117 
91 92 
91 97 
91 99 
91 101 
91 103 
91 108 
91 111 
91 115 
91 117 
92 93 
92 94 
92 96 
92 97 
92 100 
92 103 
92 104 
92 105 
92 106 
92 108 
92 117 
93 94 
93 96 
93 102 
93 105 
93 107 
93 109 
93 111 
93 113 
93 114 
93 117 
94 103 
94 106 
94 109 
94 110 
94 112 
94 114 
95 96 
95 97 
95 98 
95 99 
95 100 
95 101 
95 102 
95 103 
95 105 
95 113 
95 115 
96 97 
96 98 
96 99 
96 100 
96 102 
96 104 
96 105 
96 106 
96 113 
96 114 
97 98 
97 99 
97 101 
97 103 
97 104 
97 107 
97 108 
97 117 
98 99 
98 100 
98 102 
98 104 
98 108 
98 109 
98 112 
98 114 
98 116 
99 101 
99 106 
99 111 
99 113 
99 115 
99 116 
99 117 
100 101 
100 102 
100 103 
100 104 
100 105 
100 106 
100 112 
100 114 
100 116 
101 102 
101 103 
101 104 
101 107 
101 111 
101 115 
102 103 
102 104 
102 108 
102 109 
102 113 
102 114 
103 108 
103 109 
103 110 
103 114 
103 117 
104 105 
104 106 
104 107 
104 108 
104 109 
105 106 
105 107 
105 109 
105 111 
105 113 
105 115 
105 117 
106 112 
106 113 
106 116 
106 117 
107 109 
107 110 
107 111 
107 115 
107 116 
107 117 
108 109 
108 110 
108 111 
108 112 
108 117 
109 110 
109 111 
109 114 
109 117 
110 111 
110 112 
110 114 
110 115 
110 116 
111 112 
111 115 
111 117 
112 114 
112 116 
113 114 
113 115 
113 116 
113 117 
114 116 
115 116 
116 117 
